instances/knapsack/discrete/knapsack_80_16.lp
\ Model knapsack_80_16
\ LP format - for model browsing. Use MPS format to capture full model detail.
\ Signature: 0xf86d0bbf74a39a5e
Minimize
  - 52 x[0] - 16 x[1] - 94 x[2] - 74 x[3] - 99 x[4] - 87 x[5] - 3 x[6]
   - 41 x[7] - 68 x[8] - 72 x[9] - 45 x[10] - 21 x[11] - 41 x[12]
   - 36 x[13] - 69 x[14] - 50 x[15] - 28 x[16] - 20 x[17] - 28 x[18]
   - 39 x[19] - 75 x[20] - 5 x[21] - 34 x[22] - 30 x[23] - 31 x[24]
   - 88 x[25] - 82 x[26] - 69 x[27] - 60 x[28] - 30 x[29] - 19 x[30]
   - 58 x[31] - 66 x[32] - 57 x[33] - 13 x[34] - 11 x[35] - 19 x[36]
   - 77 x[37] - 100 x[38] - 13 x[39] - 30 x[40] - 3 x[41] - 59 x[42]
   - 25 x[43] - 56 x[44] - 89 x[45] - 98 x[46] - 54 x[47] - 34 x[48]
   - 27 x[49] - 61 x[50] - 4 x[51] - 49 x[52] - 35 x[53] - 86 x[54]
   - 68 x[55] - 64 x[56] - 74 x[57] - 42 x[58] - 29 x[59] - 18 x[60]
   - 16 x[61] - 91 x[62] - 67 x[63] - 32 x[64] - 3 x[65] - 47 x[66]
   - 79 x[67] - 30 x[68] - 43 x[69] - 15 x[70] - 49 x[71] - 75 x[72]
   - 27 x[73] - 8 x[74] - 80 x[75] - 72 x[76] - 71 x[77] - 74 x[78]
   - 41 x[79]
Subject To
 primal_upper: 75 x[0] + 96 x[1] + 98 x[2] + 35 x[3] + 8 x[4] + 5 x[5]
   + 85 x[6] + 91 x[7] + 33 x[8] + 38 x[9] + 3 x[10] + 71 x[11] + 16 x[12]
   + 64 x[13] + 88 x[14] + 16 x[15] + 85 x[16] + 64 x[17] + 97 x[18]
   + 2 x[19] + 65 x[20] + 63 x[21] + 36 x[22] + 42 x[23] + 24 x[24]
   + 32 x[25] + 34 x[26] + 27 x[27] + x[28] + 35 x[29] + 81 x[30]
   + 71 x[31] + 47 x[32] + 25 x[33] + 72 x[34] + 25 x[35] + 72 x[36]
   + 88 x[37] + 64 x[38] + 66 x[39] + 51 x[40] + 29 x[41] + 58 x[42]
   + 69 x[43] + 43 x[44] + 34 x[45] + 85 x[46] + 93 x[47] + 39 x[48]
   + 24 x[49] + 98 x[50] + 76 x[51] + 61 x[52] + 76 x[53] + 32 x[54]
   + 51 x[55] + 33 x[56] + 90 x[57] + 92 x[58] + 34 x[59] + 36 x[60]
   + 74 x[61] + 11 x[62] + 90 x[63] + 99 x[64] + 88 x[65] + 8 x[66]
   + 90 x[67] + 28 x[68] + 65 x[69] + 81 x[70] + 65 x[71] + 26 x[72]
   + 39 x[73] + 39 x[74] + 32 x[75] + 62 x[76] + 11 x[77] + 68 x[78]
   + 90 x[79] + 7.5 r[0] + 9.6 r[1] + 9.8 r[2] + 3.5 r[3] + 0.8 r[4]
   + 0.5 r[5] + 8.5 r[6] + 9.1 r[7] + 3.3 r[8] + 3.8 r[9] + 0.3 r[10]
   + 7.1 r[11] + 1.6 r[12] + 6.4 r[13] + 8.8 r[14] + 1.6 r[15] + 8.5 r[16]
   + 6.4 r[17] + 9.7 r[18] + 0.2 r[19] + 6.5 r[20] + 6.3 r[21] + 3.6 r[22]
   + 4.2 r[23] + 2.4 r[24] + 3.2 r[25] + 3.4 r[26] + 2.7 r[27] + 0.1 r[28]
   + 3.5 r[29] + 8.1 r[30] + 7.1 r[31] + 4.7 r[32] + 2.5 r[33] + 7.2 r[34]
   + 2.5 r[35] + 7.2 r[36] + 8.8 r[37] + 6.4 r[38] + 6.6 r[39] + 5.1 r[40]
   + 2.9 r[41] + 5.8 r[42] + 6.9 r[43] + 4.3 r[44] + 3.4 r[45] + 8.5 r[46]
   + 9.3 r[47] + 3.9 r[48] + 2.4 r[49] + 9.8 r[50] + 7.6 r[51] + 6.1 r[52]
   + 7.6 r[53] + 3.2 r[54] + 5.1 r[55] + 3.3 r[56] + 9 r[57] + 9.2 r[58]
   + 3.4 r[59] + 3.6 r[60] + 7.4 r[61] + 1.1 r[62] + 9 r[63] + 9.9 r[64]
   + 8.8 r[65] + 0.8 r[66] + 9 r[67] + 2.8 r[68] + 6.5 r[69] + 8.1 r[70]
   + 6.5 r[71] + 2.6 r[72] + 3.9 r[73] + 3.9 r[74] + 3.2 r[75] + 6.2 r[76]
   + 1.1 r[77] + 6.8 r[78] + 9 r[79] <= 410
 primal_lower: 2.706144529321064 x[0] + 1.685373201495059 x[1]
   + 1.703171029359473 x[2] + 0.9046195739143718 x[3]
   + 1.087676073228042 x[4] + 2.43791701828542 x[5]
   + 4.261101741723627 x[6] + 1.732499461523698 x[7]
   + 1.692554875038361 x[8] + 1.244928139881922 x[9]
   + 3.792994536635889 x[10] + 1.844087313094463 x[11]
   + 1.249299782777642 x[12] + 4.101976320141895 x[13]
   + 3.784999230911976 x[14] + 3.937116750307298 x[15]
   + 4.13145117603455 x[16] + 3.465193000269786 x[17]
   + 0.5897009137066604 x[18] + 4.016474815758628 x[19]
   + 0.6485750575004933 x[20] + 2.310594386528184 x[21]
   + 4.020603797393502 x[22] + 3.584780368265907 x[23]
   + 1.461202284676033 x[24] + 4.103600865259192 x[25]
   + 0.3311791461804212 x[26] + 3.068705059179507 x[27]
   + 2.702164662045254 x[28] + 0.9580348006978647 x[29]
   + 1.370690507901454 x[30] + 1.54499960195854 x[31]
   + 3.346842679699617 x[32] + 0.2603534416720243 x[33]
   + 1.437062365101433 x[34] + 3.905125692816531 x[35]
   + 4.137989963734234 x[36] + 0.0389731450939716 x[37]
   + 1.866571147116973 x[38] + 1.994981104804124 x[39]
   + 2.502552670702991 x[40] + 3.860817207375011 x[41]
   + 3.70371390408902 x[42] + 1.947783522070562 x[43]
   + 1.262945466611798 x[44] + 3.309977331285407 x[45]
   + 0.3186566605466772 x[46] + 3.201610704713843 x[47]
   + 4.237414858212684 x[48] + 0.6675412155354533 x[49]
   + 3.006218936504294 x[50] + 3.104559368065326 x[51]
   + 2.104893166162312 x[52] + 3.104407554421803 x[53]
   + 1.389546582276373 x[54] + 4.255483264292515 x[55]
   + 2.909026859080424 x[56] + 3.531797808234749 x[57]
   + 1.964558018193145 x[58] + 1.945805503633788 x[59]
   + 0.3920293232771654 x[60] + 2.864745816084539 x[61]
   + 2.978889616937785 x[62] + 1.624158794878872 x[63]
   + 1.115957260320525 x[64] + 0.6036773711164002 x[65]
   + 2.790540148915281 x[66] + 3.15885889778516 x[67]
   + 1.382746583126792 x[68] + 2.78073105328839 x[69]
   + 4.077053946438273 x[70] + 2.984541720308443 x[71]
   + 1.25627092831089 x[72] + 2.395512409506941 x[73]
   + 3.802357330540835 x[74] + 2.397019624123762 x[75]
   + 1.747421759148892 x[76] + 2.257541789475201 x[77]
   + 2.053862419845126 x[78] + 0.025685952435368 x[79] + 63 u[0] + 43 u[1]
   + 93 u[2] + 62 u[3] + 19 u[4] + 77 u[5] + 4 u[6] + 19 u[7] + 88 u[8]
   + 25 u[9] + 15 u[10] + 22 u[11] + 23 u[12] + 35 u[13] + 72 u[14]
   + 36 u[15] + 44 u[16] + 51 u[17] + 68 u[18] + 29 u[19] + 80 u[20]
   + 47 u[21] + 43 u[22] + 14 u[23] + 28 u[24] + 19 u[25] + 13 u[26]
   + 59 u[27] + 49 u[28] + 38 u[29] + 25 u[30] + 95 u[31] + 15 u[32]
   + 88 u[33] + 91 u[34] + 40 u[35] + 83 u[36] + 76 u[37] + 19 u[38]
   + 6 u[39] + 34 u[40] + 13 u[41] + 33 u[42] + 13 u[43] + 26 u[44]
   + 30 u[45] + 13 u[46] + 77 u[47] + 30 u[48] + 79 u[49] + 70 u[50]
   + 87 u[51] + 20 u[52] + 99 u[53] + 16 u[54] + 15 u[55] + 44 u[56]
   + 82 u[57] + 79 u[58] + 29 u[59] + 60 u[60] + 94 u[61] + 43 u[62]
   + 26 u[63] + 51 u[64] + 99 u[65] + 8 u[66] + 34 u[67] + 39 u[68]
   + 85 u[69] + 45 u[70] + u[71] + 25 u[72] + 6 u[73] + 63 u[74]
   + 100 u[75] + 62 u[76] + 62 u[77] + 20 u[78] + 2 u[79] <= 56400
 mccormick1[0]: - u[0] + r[0] <= 0
 mccormick1[1]: - u[1] + r[1] <= 0
 mccormick1[2]: - u[2] + r[2] <= 0
 mccormick1[3]: - u[3] + r[3] <= 0
 mccormick1[4]: - u[4] + r[4] <= 0
 mccormick1[5]: - u[5] + r[5] <= 0
 mccormick1[6]: - u[6] + r[6] <= 0
 mccormick1[7]: - u[7] + r[7] <= 0
 mccormick1[8]: - u[8] + r[8] <= 0
 mccormick1[9]: - u[9] + r[9] <= 0
 mccormick1[10]: - u[10] + r[10] <= 0
 mccormick1[11]: - u[11] + r[11] <= 0
 mccormick1[12]: - u[12] + r[12] <= 0
 mccormick1[13]: - u[13] + r[13] <= 0
 mccormick1[14]: - u[14] + r[14] <= 0
 mccormick1[15]: - u[15] + r[15] <= 0
 mccormick1[16]: - u[16] + r[16] <= 0
 mccormick1[17]: - u[17] + r[17] <= 0
 mccormick1[18]: - u[18] + r[18] <= 0
 mccormick1[19]: - u[19] + r[19] <= 0
 mccormick1[20]: - u[20] + r[20] <= 0
 mccormick1[21]: - u[21] + r[21] <= 0
 mccormick1[22]: - u[22] + r[22] <= 0
 mccormick1[23]: - u[23] + r[23] <= 0
 mccormick1[24]: - u[24] + r[24] <= 0
 mccormick1[25]: - u[25] + r[25] <= 0
 mccormick1[26]: - u[26] + r[26] <= 0
 mccormick1[27]: - u[27] + r[27] <= 0
 mccormick1[28]: - u[28] + r[28] <= 0
 mccormick1[29]: - u[29] + r[29] <= 0
 mccormick1[30]: - u[30] + r[30] <= 0
 mccormick1[31]: - u[31] + r[31] <= 0
 mccormick1[32]: - u[32] + r[32] <= 0
 mccormick1[33]: - u[33] + r[33] <= 0
 mccormick1[34]: - u[34] + r[34] <= 0
 mccormick1[35]: - u[35] + r[35] <= 0
 mccormick1[36]: - u[36] + r[36] <= 0
 mccormick1[37]: - u[37] + r[37] <= 0
 mccormick1[38]: - u[38] + r[38] <= 0
 mccormick1[39]: - u[39] + r[39] <= 0
 mccormick1[40]: - u[40] + r[40] <= 0
 mccormick1[41]: - u[41] + r[41] <= 0
 mccormick1[42]: - u[42] + r[42] <= 0
 mccormick1[43]: - u[43] + r[43] <= 0
 mccormick1[44]: - u[44] + r[44] <= 0
 mccormick1[45]: - u[45] + r[45] <= 0
 mccormick1[46]: - u[46] + r[46] <= 0
 mccormick1[47]: - u[47] + r[47] <= 0
 mccormick1[48]: - u[48] + r[48] <= 0
 mccormick1[49]: - u[49] + r[49] <= 0
 mccormick1[50]: - u[50] + r[50] <= 0
 mccormick1[51]: - u[51] + r[51] <= 0
 mccormick1[52]: - u[52] + r[52] <= 0
 mccormick1[53]: - u[53] + r[53] <= 0
 mccormick1[54]: - u[54] + r[54] <= 0
 mccormick1[55]: - u[55] + r[55] <= 0
 mccormick1[56]: - u[56] + r[56] <= 0
 mccormick1[57]: - u[57] + r[57] <= 0
 mccormick1[58]: - u[58] + r[58] <= 0
 mccormick1[59]: - u[59] + r[59] <= 0
 mccormick1[60]: - u[60] + r[60] <= 0
 mccormick1[61]: - u[61] + r[61] <= 0
 mccormick1[62]: - u[62] + r[62] <= 0
 mccormick1[63]: - u[63] + r[63] <= 0
 mccormick1[64]: - u[64] + r[64] <= 0
 mccormick1[65]: - u[65] + r[65] <= 0
 mccormick1[66]: - u[66] + r[66] <= 0
 mccormick1[67]: - u[67] + r[67] <= 0
 mccormick1[68]: - u[68] + r[68] <= 0
 mccormick1[69]: - u[69] + r[69] <= 0
 mccormick1[70]: - u[70] + r[70] <= 0
 mccormick1[71]: - u[71] + r[71] <= 0
 mccormick1[72]: - u[72] + r[72] <= 0
 mccormick1[73]: - u[73] + r[73] <= 0
 mccormick1[74]: - u[74] + r[74] <= 0
 mccormick1[75]: - u[75] + r[75] <= 0
 mccormick1[76]: - u[76] + r[76] <= 0
 mccormick1[77]: - u[77] + r[77] <= 0
 mccormick1[78]: - u[78] + r[78] <= 0
 mccormick1[79]: - u[79] + r[79] <= 0
 mccormick2[0]: - x[0] + r[0] <= 0
 mccormick2[1]: - x[1] + r[1] <= 0
 mccormick2[2]: - x[2] + r[2] <= 0
 mccormick2[3]: - x[3] + r[3] <= 0
 mccormick2[4]: - x[4] + r[4] <= 0
 mccormick2[5]: - x[5] + r[5] <= 0
 mccormick2[6]: - x[6] + r[6] <= 0
 mccormick2[7]: - x[7] + r[7] <= 0
 mccormick2[8]: - x[8] + r[8] <= 0
 mccormick2[9]: - x[9] + r[9] <= 0
 mccormick2[10]: - x[10] + r[10] <= 0
 mccormick2[11]: - x[11] + r[11] <= 0
 mccormick2[12]: - x[12] + r[12] <= 0
 mccormick2[13]: - x[13] + r[13] <= 0
 mccormick2[14]: - x[14] + r[14] <= 0
 mccormick2[15]: - x[15] + r[15] <= 0
 mccormick2[16]: - x[16] + r[16] <= 0
 mccormick2[17]: - x[17] + r[17] <= 0
 mccormick2[18]: - x[18] + r[18] <= 0
 mccormick2[19]: - x[19] + r[19] <= 0
 mccormick2[20]: - x[20] + r[20] <= 0
 mccormick2[21]: - x[21] + r[21] <= 0
 mccormick2[22]: - x[22] + r[22] <= 0
 mccormick2[23]: - x[23] + r[23] <= 0
 mccormick2[24]: - x[24] + r[24] <= 0
 mccormick2[25]: - x[25] + r[25] <= 0
 mccormick2[26]: - x[26] + r[26] <= 0
 mccormick2[27]: - x[27] + r[27] <= 0
 mccormick2[28]: - x[28] + r[28] <= 0
 mccormick2[29]: - x[29] + r[29] <= 0
 mccormick2[30]: - x[30] + r[30] <= 0
 mccormick2[31]: - x[31] + r[31] <= 0
 mccormick2[32]: - x[32] + r[32] <= 0
 mccormick2[33]: - x[33] + r[33] <= 0
 mccormick2[34]: - x[34] + r[34] <= 0
 mccormick2[35]: - x[35] + r[35] <= 0
 mccormick2[36]: - x[36] + r[36] <= 0
 mccormick2[37]: - x[37] + r[37] <= 0
 mccormick2[38]: - x[38] + r[38] <= 0
 mccormick2[39]: - x[39] + r[39] <= 0
 mccormick2[40]: - x[40] + r[40] <= 0
 mccormick2[41]: - x[41] + r[41] <= 0
 mccormick2[42]: - x[42] + r[42] <= 0
 mccormick2[43]: - x[43] + r[43] <= 0
 mccormick2[44]: - x[44] + r[44] <= 0
 mccormick2[45]: - x[45] + r[45] <= 0
 mccormick2[46]: - x[46] + r[46] <= 0
 mccormick2[47]: - x[47] + r[47] <= 0
 mccormick2[48]: - x[48] + r[48] <= 0
 mccormick2[49]: - x[49] + r[49] <= 0
 mccormick2[50]: - x[50] + r[50] <= 0
 mccormick2[51]: - x[51] + r[51] <= 0
 mccormick2[52]: - x[52] + r[52] <= 0
 mccormick2[53]: - x[53] + r[53] <= 0
 mccormick2[54]: - x[54] + r[54] <= 0
 mccormick2[55]: - x[55] + r[55] <= 0
 mccormick2[56]: - x[56] + r[56] <= 0
 mccormick2[57]: - x[57] + r[57] <= 0
 mccormick2[58]: - x[58] + r[58] <= 0
 mccormick2[59]: - x[59] + r[59] <= 0
 mccormick2[60]: - x[60] + r[60] <= 0
 mccormick2[61]: - x[61] + r[61] <= 0
 mccormick2[62]: - x[62] + r[62] <= 0
 mccormick2[63]: - x[63] + r[63] <= 0
 mccormick2[64]: - x[64] + r[64] <= 0
 mccormick2[65]: - x[65] + r[65] <= 0
 mccormick2[66]: - x[66] + r[66] <= 0
 mccormick2[67]: - x[67] + r[67] <= 0
 mccormick2[68]: - x[68] + r[68] <= 0
 mccormick2[69]: - x[69] + r[69] <= 0
 mccormick2[70]: - x[70] + r[70] <= 0
 mccormick2[71]: - x[71] + r[71] <= 0
 mccormick2[72]: - x[72] + r[72] <= 0
 mccormick2[73]: - x[73] + r[73] <= 0
 mccormick2[74]: - x[74] + r[74] <= 0
 mccormick2[75]: - x[75] + r[75] <= 0
 mccormick2[76]: - x[76] + r[76] <= 0
 mccormick2[77]: - x[77] + r[77] <= 0
 mccormick2[78]: - x[78] + r[78] <= 0
 mccormick2[79]: - x[79] + r[79] <= 0
 mccormick3[0]: x[0] + u[0] - r[0] <= 1
 mccormick3[1]: x[1] + u[1] - r[1] <= 1
 mccormick3[2]: x[2] + u[2] - r[2] <= 1
 mccormick3[3]: x[3] + u[3] - r[3] <= 1
 mccormick3[4]: x[4] + u[4] - r[4] <= 1
 mccormick3[5]: x[5] + u[5] - r[5] <= 1
 mccormick3[6]: x[6] + u[6] - r[6] <= 1
 mccormick3[7]: x[7] + u[7] - r[7] <= 1
 mccormick3[8]: x[8] + u[8] - r[8] <= 1
 mccormick3[9]: x[9] + u[9] - r[9] <= 1
 mccormick3[10]: x[10] + u[10] - r[10] <= 1
 mccormick3[11]: x[11] + u[11] - r[11] <= 1
 mccormick3[12]: x[12] + u[12] - r[12] <= 1
 mccormick3[13]: x[13] + u[13] - r[13] <= 1
 mccormick3[14]: x[14] + u[14] - r[14] <= 1
 mccormick3[15]: x[15] + u[15] - r[15] <= 1
 mccormick3[16]: x[16] + u[16] - r[16] <= 1
 mccormick3[17]: x[17] + u[17] - r[17] <= 1
 mccormick3[18]: x[18] + u[18] - r[18] <= 1
 mccormick3[19]: x[19] + u[19] - r[19] <= 1
 mccormick3[20]: x[20] + u[20] - r[20] <= 1
 mccormick3[21]: x[21] + u[21] - r[21] <= 1
 mccormick3[22]: x[22] + u[22] - r[22] <= 1
 mccormick3[23]: x[23] + u[23] - r[23] <= 1
 mccormick3[24]: x[24] + u[24] - r[24] <= 1
 mccormick3[25]: x[25] + u[25] - r[25] <= 1
 mccormick3[26]: x[26] + u[26] - r[26] <= 1
 mccormick3[27]: x[27] + u[27] - r[27] <= 1
 mccormick3[28]: x[28] + u[28] - r[28] <= 1
 mccormick3[29]: x[29] + u[29] - r[29] <= 1
 mccormick3[30]: x[30] + u[30] - r[30] <= 1
 mccormick3[31]: x[31] + u[31] - r[31] <= 1
 mccormick3[32]: x[32] + u[32] - r[32] <= 1
 mccormick3[33]: x[33] + u[33] - r[33] <= 1
 mccormick3[34]: x[34] + u[34] - r[34] <= 1
 mccormick3[35]: x[35] + u[35] - r[35] <= 1
 mccormick3[36]: x[36] + u[36] - r[36] <= 1
 mccormick3[37]: x[37] + u[37] - r[37] <= 1
 mccormick3[38]: x[38] + u[38] - r[38] <= 1
 mccormick3[39]: x[39] + u[39] - r[39] <= 1
 mccormick3[40]: x[40] + u[40] - r[40] <= 1
 mccormick3[41]: x[41] + u[41] - r[41] <= 1
 mccormick3[42]: x[42] + u[42] - r[42] <= 1
 mccormick3[43]: x[43] + u[43] - r[43] <= 1
 mccormick3[44]: x[44] + u[44] - r[44] <= 1
 mccormick3[45]: x[45] + u[45] - r[45] <= 1
 mccormick3[46]: x[46] + u[46] - r[46] <= 1
 mccormick3[47]: x[47] + u[47] - r[47] <= 1
 mccormick3[48]: x[48] + u[48] - r[48] <= 1
 mccormick3[49]: x[49] + u[49] - r[49] <= 1
 mccormick3[50]: x[50] + u[50] - r[50] <= 1
 mccormick3[51]: x[51] + u[51] - r[51] <= 1
 mccormick3[52]: x[52] + u[52] - r[52] <= 1
 mccormick3[53]: x[53] + u[53] - r[53] <= 1
 mccormick3[54]: x[54] + u[54] - r[54] <= 1
 mccormick3[55]: x[55] + u[55] - r[55] <= 1
 mccormick3[56]: x[56] + u[56] - r[56] <= 1
 mccormick3[57]: x[57] + u[57] - r[57] <= 1
 mccormick3[58]: x[58] + u[58] - r[58] <= 1
 mccormick3[59]: x[59] + u[59] - r[59] <= 1
 mccormick3[60]: x[60] + u[60] - r[60] <= 1
 mccormick3[61]: x[61] + u[61] - r[61] <= 1
 mccormick3[62]: x[62] + u[62] - r[62] <= 1
 mccormick3[63]: x[63] + u[63] - r[63] <= 1
 mccormick3[64]: x[64] + u[64] - r[64] <= 1
 mccormick3[65]: x[65] + u[65] - r[65] <= 1
 mccormick3[66]: x[66] + u[66] - r[66] <= 1
 mccormick3[67]: x[67] + u[67] - r[67] <= 1
 mccormick3[68]: x[68] + u[68] - r[68] <= 1
 mccormick3[69]: x[69] + u[69] - r[69] <= 1
 mccormick3[70]: x[70] + u[70] - r[70] <= 1
 mccormick3[71]: x[71] + u[71] - r[71] <= 1
 mccormick3[72]: x[72] + u[72] - r[72] <= 1
 mccormick3[73]: x[73] + u[73] - r[73] <= 1
 mccormick3[74]: x[74] + u[74] - r[74] <= 1
 mccormick3[75]: x[75] + u[75] - r[75] <= 1
 mccormick3[76]: x[76] + u[76] - r[76] <= 1
 mccormick3[77]: x[77] + u[77] - r[77] <= 1
 mccormick3[78]: x[78] + u[78] - r[78] <= 1
 mccormick3[79]: x[79] + u[79] - r[79] <= 1
Bounds
Binaries
 x[0] x[1] x[2] x[3] x[4] x[5] x[6] x[7] x[8] x[9] x[10] x[11] x[12] x[13]
 x[14] x[15] x[16] x[17] x[18] x[19] x[20] x[21] x[22] x[23] x[24] x[25]
 x[26] x[27] x[28] x[29] x[30] x[31] x[32] x[33] x[34] x[35] x[36] x[37]
 x[38] x[39] x[40] x[41] x[42] x[43] x[44] x[45] x[46] x[47] x[48] x[49]
 x[50] x[51] x[52] x[53] x[54] x[55] x[56] x[57] x[58] x[59] x[60] x[61]
 x[62] x[63] x[64] x[65] x[66] x[67] x[68] x[69] x[70] x[71] x[72] x[73]
 x[74] x[75] x[76] x[77] x[78] x[79] u[0] u[1] u[2] u[3] u[4] u[5] u[6]
 u[7] u[8] u[9] u[10] u[11] u[12] u[13] u[14] u[15] u[16] u[17] u[18] u[19]
 u[20] u[21] u[22] u[23] u[24] u[25] u[26] u[27] u[28] u[29] u[30] u[31]
 u[32] u[33] u[34] u[35] u[36] u[37] u[38] u[39] u[40] u[41] u[42] u[43]
 u[44] u[45] u[46] u[47] u[48] u[49] u[50] u[51] u[52] u[53] u[54] u[55]
 u[56] u[57] u[58] u[59] u[60] u[61] u[62] u[63] u[64] u[65] u[66] u[67]
 u[68] u[69] u[70] u[71] u[72] u[73] u[74] u[75] u[76] u[77] u[78] u[79]
 r[0] r[1] r[2] r[3] r[4] r[5] r[6] r[7] r[8] r[9] r[10] r[11] r[12] r[13]
 r[14] r[15] r[16] r[17] r[18] r[19] r[20] r[21] r[22] r[23] r[24] r[25]
 r[26] r[27] r[28] r[29] r[30] r[31] r[32] r[33] r[34] r[35] r[36] r[37]
 r[38] r[39] r[40] r[41] r[42] r[43] r[44] r[45] r[46] r[47] r[48] r[49]
 r[50] r[51] r[52] r[53] r[54] r[55] r[56] r[57] r[58] r[59] r[60] r[61]
 r[62] r[63] r[64] r[65] r[66] r[67] r[68] r[69] r[70] r[71] r[72] r[73]
 r[74] r[75] r[76] r[77] r[78] r[79]
End
