instances/knapsack/discrete/knapsack_80_16.kp
96725
80
410

75 7.5 52
96 9.6 16
98 9.8 94
35 3.5 74
8 0.8 99
5 0.5 87
85 8.5 3
91 9.1 41
33 3.3 68
38 3.8 72
3 0.3 45
71 7.1 21
16 1.6 41
64 6.4 36
88 8.8 69
16 1.6 50
85 8.5 28
64 6.4 20
97 9.7 28
2 0.2 39
65 6.5 75
63 6.3 5
36 3.6 34
42 4.2 30
24 2.4 31
32 3.2 88
34 3.4 82
27 2.7 69
1 0.1 60
35 3.5 30
81 8.1 19
71 7.1 58
47 4.7 66
25 2.5 57
72 7.2 13
25 2.5 11
72 7.2 19
88 8.8 77
64 6.4 100
66 6.6 13
51 5.1 30
29 2.9 3
58 5.8 59
69 6.9 25
43 4.3 56
34 3.4 89
85 8.5 98
93 9.3 54
39 3.9 34
24 2.4 27
98 9.8 61
76 7.6 4
61 6.1 49
76 7.6 35
32 3.2 86
51 5.1 68
33 3.3 64
90 9.0 74
92 9.2 42
34 3.4 29
36 3.6 18
74 7.4 16
11 1.1 91
90 9.0 67
99 9.9 32
88 8.8 3
8 0.8 47
90 9.0 79
28 2.8 30
65 6.5 43
81 8.1 15
65 6.5 49
26 2.6 75
39 3.9 27
39 3.9 8
32 3.2 80
62 6.2 72
11 1.1 71
68 6.8 74
90 9.0 41

56400
345

[2.7061445293210644 1.6853732014950593 1.703171029359473 0.9046195739143718 1.0876760732280424 2.4379170182854195 4.2611017417236265 1.7324994615236977 1.6925548750383606 1.2449281398819223 3.7929945366358893 1.844087313094463 1.2492997827776418 4.101976320141895 3.7849992309119758 3.9371167503072977 4.13145117603455 3.465193000269786 0.5897009137066604 4.016474815758628 0.6485750575004933 2.310594386528184 4.020603797393502 3.5847803682659065 1.4612022846760326 4.1036008652591915 0.33117914618042116 3.068705059179507 2.7021646620452544 0.9580348006978647 1.3706905079014544 1.5449996019585401 3.3468426796996167 0.2603534416720243 1.4370623651014334 3.9051256928165308 4.137989963734234 0.03897314509397164 1.8665711471169735 1.9949811048041242 2.5025526707029915 3.8608172073750113 3.70371390408902 1.9477835220705617 1.2629454666117983 3.3099773312854066 0.31865666054667724 3.2016107047138433 4.237414858212684 0.6675412155354533 3.006218936504294 3.1045593680653263 2.1048931661623116 3.104407554421803 1.389546582276373 4.255483264292515 2.9090268590804236 3.531797808234749 1.9645580181931455 1.9458055036337885 0.3920293232771654 2.864745816084539 2.9788896169377854 1.6241587948788718 1.1159572603205248 0.6036773711164002 2.7905401489152815 3.15885889778516 1.3827465831267922 2.78073105328839 4.077053946438273 2.984541720308443 1.2562709283108904 2.395512409506941 3.802357330540835 2.397019624123762 1.7474217591488916 2.2575417894752015 2.053862419845126 0.025685952435368017]

[63 43 93 62 19 77 4 19 88 25 15 22 23 35 72 36 44 51 68 29 80 47 43 14 28 19 13 59 49 38 25 95 15 88 91 40 83 76 19 6 34 13 33 13 26 30 13 77 30 79 70 87 20 99 16 15 44 82 79 29 60 94 43 26 51 99 8 34 39 85 45 1 25 6 63 100 62 62 20 2]
